30 61
28
5 7 20 36
5 14 7 21
8 14 12 29
8 4 12 25
13 21 0 0
11 7 16 0
11 14 11 43
5 14 2 21
5 4 20 14
3 18 22 43
3 21 13 4
11 17 0 38
11 4 11 57
4 7 23 7
4 5 0 56
7 6 4 55
5 18 20 18
5 3 7 35
3 7 20 7
3 5 27 17
4 18 16 7
4 3 2 35
2 12 0 26
2 6 25 15
5 18 25 22
5 21 25 40
3 17 27 0
3 4 13 0
